p cnf 955 2450
51 -690 -691 0
-51 690 0
-51 691 0
52 -51 -3 0
-52 51 0
-52 3 0
53 -692 -691 0
-53 692 0
-53 691 0
54 -53 -3 0
-54 53 0
-54 3 0
55 -693 -694 0
-55 693 0
-55 694 0
56 -5 -2 0
-56 5 0
-56 2 0
57 -56 -6 0
-57 56 0
-57 6 0
58 -695 -55 0
-58 695 0
-58 55 0
59 -696 -697 0
-59 696 0
-59 697 0
60 -59 -9 0
-60 59 0
-60 9 0
61 -698 -58 0
-61 698 0
-61 58 0
62 -699 -9 0
-62 699 0
-62 9 0
63 -62 -690 0
-63 62 0
-63 690 0
64 -700 -61 0
-64 700 0
-64 61 0
65 -701 -1 0
-65 701 0
-65 1 0
66 -65 -11 0
-66 65 0
-66 11 0
67 -702 -64 0
-67 702 0
-67 64 0
68 -12 -690 0
-68 12 0
-68 690 0
69 -68 -13 0
-69 68 0
-69 13 0
70 -703 -67 0
-70 703 0
-70 67 0
71 -704 -692 0
-71 704 0
-71 692 0
72 -71 -690 0
-72 71 0
-72 690 0
73 -705 -70 0
-73 705 0
-73 70 0
74 -15 -10 0
-74 15 0
-74 10 0
75 -74 -706 0
-75 74 0
-75 706 0
76 -707 -73 0
-76 707 0
-76 73 0
77 -17 -708 0
-77 17 0
-77 708 0
78 -77 -709 0
-78 77 0
-78 709 0
79 -710 -76 0
-79 710 0
-79 76 0
80 -708 -14 0
-80 708 0
-80 14 0
81 -80 -711 0
-81 80 0
-81 711 0
82 -712 -79 0
-82 712 0
-82 79 0
83 -21 -20 0
-83 21 0
-83 20 0
84 -83 -713 0
-84 83 0
-84 713 0
85 -714 -82 0
-85 714 0
-85 82 0
86 -23 -22 0
-86 23 0
-86 22 0
87 -86 -24 0
-87 86 0
-87 24 0
88 -715 -85 0
-88 715 0
-88 85 0
89 -25 -22 0
-89 25 0
-89 22 0
90 -89 -716 0
-90 89 0
-90 716 0
91 -717 -88 0
-91 717 0
-91 88 0
92 -27 -4 0
-92 27 0
-92 4 0
93 -92 -26 0
-93 92 0
-93 26 0
94 -718 -91 0
-94 718 0
-94 91 0
95 -719 -697 0
-95 719 0
-95 697 0
96 -95 -720 0
-96 95 0
-96 720 0
97 -721 -94 0
-97 721 0
-97 94 0
98 -722 -711 0
-98 722 0
-98 711 0
99 -98 -30 0
-99 98 0
-99 30 0
100 -723 -97 0
-100 723 0
-100 97 0
101 -719 -25 0
-101 719 0
-101 25 0
102 -101 -31 0
-102 101 0
-102 31 0
103 -724 -100 0
-103 724 0
-103 100 0
104 -725 -12 0
-104 725 0
-104 12 0
105 -104 -726 0
-105 104 0
-105 726 0
106 -727 -103 0
-106 727 0
-106 103 0
107 -728 -699 0
-107 728 0
-107 699 0
108 -107 -15 0
-108 107 0
-108 15 0
109 -729 -106 0
-109 729 0
-109 106 0
110 -726 -713 0
-110 726 0
-110 713 0
111 -110 -730 0
-111 110 0
-111 730 0
112 -731 -109 0
-112 731 0
-112 109 0
113 -34 -5 0
-113 34 0
-113 5 0
114 -113 -690 0
-114 113 0
-114 690 0
115 -732 -112 0
-115 732 0
-115 112 0
116 -35 -708 0
-116 35 0
-116 708 0
117 -116 -13 0
-117 116 0
-117 13 0
118 -733 -115 0
-118 733 0
-118 115 0
119 -716 -699 0
-119 716 0
-119 699 0
120 -119 -734 0
-120 119 0
-120 734 0
121 -735 -118 0
-121 735 0
-121 118 0
122 -37 -704 0
-122 37 0
-122 704 0
123 -122 -736 0
-123 122 0
-123 736 0
124 -737 -121 0
-124 737 0
-124 121 0
125 -39 -697 0
-125 39 0
-125 697 0
126 -125 -8 0
-126 125 0
-126 8 0
127 -738 -124 0
-127 738 0
-127 124 0
128 -725 -704 0
-128 725 0
-128 704 0
129 -128 -736 0
-129 128 0
-129 736 0
130 -739 -127 0
-130 739 0
-130 127 0
131 -40 -740 0
-131 40 0
-131 740 0
132 -131 -726 0
-132 131 0
-132 726 0
133 -741 -130 0
-133 741 0
-133 130 0
134 -41 -742 0
-134 41 0
-134 742 0
135 -134 -743 0
-135 134 0
-135 743 0
136 -744 -133 0
-136 744 0
-136 133 0
137 -697 -691 0
-137 697 0
-137 691 0
138 -137 -726 0
-138 137 0
-138 726 0
139 -745 -136 0
-139 745 0
-139 136 0
140 -25 -20 0
-140 25 0
-140 20 0
141 -140 -21 0
-141 140 0
-141 21 0
142 -746 -139 0
-142 746 0
-142 139 0
143 -42 -701 0
-143 42 0
-143 701 0
144 -143 -27 0
-144 143 0
-144 27 0
145 -747 -142 0
-145 747 0
-145 142 0
146 -39 -719 0
-146 39 0
-146 719 0
147 -146 -19 0
-147 146 0
-147 19 0
148 -748 -145 0
-148 748 0
-148 145 0
149 -40 -749 0
-149 40 0
-149 749 0
150 -149 -38 0
-150 149 0
-150 38 0
151 -750 -148 0
-151 750 0
-151 148 0
152 -751 -21 0
-152 751 0
-152 21 0
153 -152 -8 0
-153 152 0
-153 8 0
154 -752 -151 0
-154 752 0
-154 151 0
155 -43 -692 0
-155 43 0
-155 692 0
156 -155 -3 0
-156 155 0
-156 3 0
157 -753 -154 0
-157 753 0
-157 154 0
158 -44 -704 0
-158 44 0
-158 704 0
159 -158 -726 0
-159 158 0
-159 726 0
160 -754 -157 0
-160 754 0
-160 157 0
161 -755 -742 0
-161 755 0
-161 742 0
162 -161 -736 0
-162 161 0
-162 736 0
163 -756 -160 0
-163 756 0
-163 160 0
164 -45 -4 0
-164 45 0
-164 4 0
165 -164 -690 0
-165 164 0
-165 690 0
166 -757 -163 0
-166 757 0
-166 163 0
167 -758 -9 0
-167 758 0
-167 9 0
168 -167 -740 0
-168 167 0
-168 740 0
169 -759 -166 0
-169 759 0
-169 166 0
170 -760 -708 0
-170 760 0
-170 708 0
171 -170 -697 0
-171 170 0
-171 697 0
172 -761 -169 0
-172 761 0
-172 169 0
173 -5 -4 0
-173 5 0
-173 4 0
174 -173 -31 0
-174 173 0
-174 31 0
175 -762 -172 0
-175 762 0
-175 172 0
176 -45 -763 0
-176 45 0
-176 763 0
177 -176 -726 0
-177 176 0
-177 726 0
178 -764 -175 0
-178 764 0
-178 175 0
179 -758 -7 0
-179 758 0
-179 7 0
180 -179 -765 0
-180 179 0
-180 765 0
181 -766 -178 0
-181 766 0
-181 178 0
182 -26 -11 0
-182 26 0
-182 11 0
183 -182 -706 0
-183 182 0
-183 706 0
184 -767 -181 0
-184 767 0
-184 181 0
185 -726 -10 0
-185 726 0
-185 10 0
186 -185 -706 0
-186 185 0
-186 706 0
187 -768 -184 0
-187 768 0
-187 184 0
188 -47 -18 0
-188 47 0
-188 18 0
189 -188 -691 0
-189 188 0
-189 691 0
190 -769 -187 0
-190 769 0
-190 187 0
191 -46 -41 0
-191 46 0
-191 41 0
192 -191 -770 0
-192 191 0
-192 770 0
193 -771 -190 0
-193 771 0
-193 190 0
194 -742 -690 0
-194 742 0
-194 690 0
195 -194 -33 0
-195 194 0
-195 33 0
196 -772 -193 0
-196 772 0
-196 193 0
197 -34 -7 0
-197 34 0
-197 7 0
198 -197 -3 0
-198 197 0
-198 3 0
199 -773 -196 0
-199 773 0
-199 196 0
200 -774 -35 0
-200 774 0
-200 35 0
201 -200 -36 0
-201 200 0
-201 36 0
202 -775 -199 0
-202 775 0
-202 199 0
203 -29 -20 0
-203 29 0
-203 20 0
204 -203 -776 0
-204 203 0
-204 776 0
205 -777 -202 0
-205 777 0
-205 202 0
206 -736 -32 0
-206 736 0
-206 32 0
207 -206 -3 0
-207 206 0
-207 3 0
208 -778 -205 0
-208 778 0
-208 205 0
209 -697 -6 0
-209 697 0
-209 6 0
210 -209 -779 0
-210 209 0
-210 779 0
211 -780 -208 0
-211 780 0
-211 208 0
212 -37 -711 0
-212 37 0
-212 711 0
213 -212 -35 0
-213 212 0
-213 35 0
214 -781 -211 0
-214 781 0
-214 211 0
215 -22 -701 0
-215 22 0
-215 701 0
216 -215 -23 0
-216 215 0
-216 23 0
217 -782 -214 0
-217 782 0
-217 214 0
218 -44 -22 0
-218 44 0
-218 22 0
219 -218 -31 0
-219 218 0
-219 31 0
220 -783 -217 0
-220 783 0
-220 217 0
221 -720 -9 0
-221 720 0
-221 9 0
222 -221 -11 0
-222 221 0
-222 11 0
223 -784 -220 0
-223 784 0
-223 220 0
224 -734 -716 0
-224 734 0
-224 716 0
225 -224 -785 0
-225 224 0
-225 785 0
226 -786 -223 0
-226 786 0
-226 223 0
227 -35 -2 0
-227 35 0
-227 2 0
228 -227 -785 0
-228 227 0
-228 785 0
229 -787 -226 0
-229 787 0
-229 226 0
230 -46 -20 0
-230 46 0
-230 20 0
231 -230 -12 0
-231 230 0
-231 12 0
232 -788 -229 0
-232 788 0
-232 229 0
233 -50 -740 0
-233 50 0
-233 740 0
234 -233 -3 0
-234 233 0
-234 3 0
235 -789 -232 0
-235 789 0
-235 232 0
236 -26 -16 0
-236 26 0
-236 16 0
237 -236 -690 0
-237 236 0
-237 690 0
238 -790 -235 0
-238 790 0
-238 235 0
239 -38 -36 0
-239 38 0
-239 36 0
240 -239 -791 0
-240 239 0
-240 791 0
241 -792 -238 0
-241 792 0
-241 238 0
242 -11 -696 0
-242 11 0
-242 696 0
243 -242 -726 0
-243 242 0
-243 726 0
244 -793 -241 0
-244 793 0
-244 241 0
245 -794 -708 0
-245 794 0
-245 708 0
246 -245 -23 0
-246 245 0
-246 23 0
247 -795 -244 0
-247 795 0
-247 244 0
248 -796 -28 0
-248 796 0
-248 28 0
249 -248 -743 0
-249 248 0
-249 743 0
250 -797 -247 0
-250 797 0
-250 247 0
251 -798 -704 0
-251 798 0
-251 704 0
252 -251 -15 0
-252 251 0
-252 15 0
253 -799 -250 0
-253 799 0
-253 250 0
254 -716 -692 0
-254 716 0
-254 692 0
255 -254 -3 0
-255 254 0
-255 3 0
256 -800 -253 0
-256 800 0
-256 253 0
257 -716 -4 0
-257 716 0
-257 4 0
258 -257 -33 0
-258 257 0
-258 33 0
259 -801 -256 0
-259 801 0
-259 256 0
260 -796 -34 0
-260 796 0
-260 34 0
261 -260 -785 0
-261 260 0
-261 785 0
262 -802 -259 0
-262 802 0
-262 259 0
263 -751 -34 0
-263 751 0
-263 34 0
264 -263 -803 0
-264 263 0
-264 803 0
265 -804 -262 0
-265 804 0
-265 262 0
266 -785 -742 0
-266 785 0
-266 742 0
267 -266 -11 0
-267 266 0
-267 11 0
268 -805 -265 0
-268 805 0
-268 265 0
269 -27 -23 0
-269 27 0
-269 23 0
270 -269 -779 0
-270 269 0
-270 779 0
271 -806 -268 0
-271 806 0
-271 268 0
272 -20 -17 0
-272 20 0
-272 17 0
273 -272 -41 0
-273 272 0
-273 41 0
274 -807 -271 0
-274 807 0
-274 271 0
275 -26 -699 0
-275 26 0
-275 699 0
276 -275 -18 0
-276 275 0
-276 18 0
277 -808 -274 0
-277 808 0
-277 274 0
278 -28 -809 0
-278 28 0
-278 809 0
279 -278 -7 0
-279 278 0
-279 7 0
280 -810 -277 0
-280 810 0
-280 277 0
281 -770 -42 0
-281 770 0
-281 42 0
282 -281 -2 0
-282 281 0
-282 2 0
283 -811 -280 0
-283 811 0
-283 280 0
284 -49 -728 0
-284 49 0
-284 728 0
285 -284 -706 0
-285 284 0
-285 706 0
286 -812 -283 0
-286 812 0
-286 283 0
287 -45 -20 0
-287 45 0
-287 20 0
288 -287 -725 0
-288 287 0
-288 725 0
289 -813 -286 0
-289 813 0
-289 286 0
290 -728 -20 0
-290 728 0
-290 20 0
291 -290 -794 0
-291 290 0
-291 794 0
292 -814 -289 0
-292 814 0
-292 289 0
293 -43 -18 0
-293 43 0
-293 18 0
294 -293 -736 0
-294 293 0
-294 736 0
295 -815 -292 0
-295 815 0
-295 292 0
296 -149 -816 0
-296 149 0
-296 816 0
297 -817 -295 0
-297 817 0
-297 295 0
298 -796 -719 0
-298 796 0
-298 719 0
299 -298 -794 0
-299 298 0
-299 794 0
300 -818 -297 0
-300 818 0
-300 297 0
301 -45 -751 0
-301 45 0
-301 751 0
302 -301 -709 0
-302 301 0
-302 709 0
303 -819 -300 0
-303 819 0
-303 300 0
304 -44 -37 0
-304 44 0
-304 37 0
305 -304 -765 0
-305 304 0
-305 765 0
306 -820 -303 0
-306 820 0
-306 303 0
307 -12 -8 0
-307 12 0
-307 8 0
308 -307 -726 0
-308 307 0
-308 726 0
309 -821 -306 0
-309 821 0
-309 306 0
310 -728 -708 0
-310 728 0
-310 708 0
311 -310 -35 0
-311 310 0
-311 35 0
312 -822 -309 0
-312 822 0
-312 309 0
313 -758 -15 0
-313 758 0
-313 15 0
314 -313 -726 0
-314 313 0
-314 726 0
315 -823 -312 0
-315 823 0
-315 312 0
316 -48 -14 0
-316 48 0
-316 14 0
317 -316 -10 0
-317 316 0
-317 10 0
318 -824 -315 0
-318 824 0
-318 315 0
319 -29 -701 0
-319 29 0
-319 701 0
320 -319 -763 0
-320 319 0
-320 763 0
321 -825 -318 0
-321 825 0
-321 318 0
322 -22 -711 0
-322 22 0
-322 711 0
323 -322 -763 0
-323 322 0
-323 763 0
324 -826 -321 0
-324 826 0
-324 321 0
325 -89 -740 0
-325 89 0
-325 740 0
326 -827 -324 0
-326 827 0
-326 324 0
327 -45 -22 0
-327 45 0
-327 22 0
328 -327 -4 0
-328 327 0
-328 4 0
329 -828 -326 0
-329 828 0
-329 326 0
330 -45 -740 0
-330 45 0
-330 740 0
331 -330 -765 0
-331 330 0
-331 765 0
332 -829 -329 0
-332 829 0
-332 329 0
333 -755 -725 0
-333 755 0
-333 725 0
334 -333 -33 0
-334 333 0
-334 33 0
335 -830 -332 0
-335 830 0
-335 332 0
336 -742 -740 0
-336 742 0
-336 740 0
337 -336 -730 0
-337 336 0
-337 730 0
338 -831 -335 0
-338 831 0
-338 335 0
339 -36 -776 0
-339 36 0
-339 776 0
340 -339 -11 0
-340 339 0
-340 11 0
341 -832 -338 0
-341 832 0
-341 338 0
342 -25 -697 0
-342 25 0
-342 697 0
343 -342 -699 0
-343 342 0
-343 699 0
344 -833 -341 0
-344 833 0
-344 341 0
345 -743 -708 0
-345 743 0
-345 708 0
346 -345 -765 0
-346 345 0
-346 765 0
347 -834 -344 0
-347 834 0
-347 344 0
348 -49 -46 0
-348 49 0
-348 46 0
349 -348 -835 0
-349 348 0
-349 835 0
350 -836 -347 0
-350 836 0
-350 347 0
351 -725 -697 0
-351 725 0
-351 697 0
352 -351 -12 0
-352 351 0
-352 12 0
353 -837 -350 0
-353 837 0
-353 350 0
354 -728 -690 0
-354 728 0
-354 690 0
355 -354 -12 0
-355 354 0
-355 12 0
356 -838 -353 0
-356 838 0
-356 353 0
357 -116 -3 0
-357 116 0
-357 3 0
358 -839 -356 0
-358 839 0
-358 356 0
359 -18 -9 0
-359 18 0
-359 9 0
360 -359 -740 0
-360 359 0
-360 740 0
361 -840 -358 0
-361 840 0
-361 358 0
362 -44 -719 0
-362 44 0
-362 719 0
363 -362 -18 0
-363 362 0
-363 18 0
364 -841 -361 0
-364 841 0
-364 361 0
365 -18 -5 0
-365 18 0
-365 5 0
366 -365 -785 0
-366 365 0
-366 785 0
367 -842 -364 0
-367 842 0
-367 364 0
368 -743 -816 0
-368 743 0
-368 816 0
369 -368 -763 0
-369 368 0
-369 763 0
370 -843 -367 0
-370 843 0
-370 367 0
371 -44 -23 0
-371 44 0
-371 23 0
372 -371 -2 0
-372 371 0
-372 2 0
373 -844 -370 0
-373 844 0
-373 370 0
374 -755 -845 0
-374 755 0
-374 845 0
375 -374 -19 0
-375 374 0
-375 19 0
376 -846 -373 0
-376 846 0
-376 373 0
377 -44 -34 0
-377 44 0
-377 34 0
378 -377 -6 0
-378 377 0
-378 6 0
379 -847 -376 0
-379 847 0
-379 376 0
380 -751 -816 0
-380 751 0
-380 816 0
381 -380 -734 0
-381 380 0
-381 734 0
382 -848 -379 0
-382 848 0
-382 379 0
383 -9 -8 0
-383 9 0
-383 8 0
384 -383 -24 0
-384 383 0
-384 24 0
385 -849 -382 0
-385 849 0
-385 382 0
386 -794 -763 0
-386 794 0
-386 763 0
387 -386 -709 0
-387 386 0
-387 709 0
388 -850 -385 0
-388 850 0
-388 385 0
389 -48 -704 0
-389 48 0
-389 704 0
390 -389 -709 0
-390 389 0
-390 709 0
391 -851 -388 0
-391 851 0
-391 388 0
392 -758 -699 0
-392 758 0
-392 699 0
393 -392 -3 0
-393 392 0
-393 3 0
394 -852 -391 0
-394 852 0
-394 391 0
395 -34 -728 0
-395 34 0
-395 728 0
396 -395 -36 0
-396 395 0
-396 36 0
397 -853 -394 0
-397 853 0
-397 394 0
398 -796 -10 0
-398 796 0
-398 10 0
399 -398 -785 0
-399 398 0
-399 785 0
400 -854 -397 0
-400 854 0
-400 397 0
401 -398 -779 0
-401 398 0
-401 779 0
402 -855 -400 0
-402 855 0
-402 400 0
403 -749 -722 0
-403 749 0
-403 722 0
404 -403 -18 0
-404 403 0
-404 18 0
405 -856 -402 0
-405 856 0
-405 402 0
406 -734 -8 0
-406 734 0
-406 8 0
407 -406 -765 0
-407 406 0
-407 765 0
408 -857 -405 0
-408 857 0
-408 405 0
409 -751 -35 0
-409 751 0
-409 35 0
410 -409 -13 0
-410 409 0
-410 13 0
411 -858 -408 0
-411 858 0
-411 408 0
412 -774 -41 0
-412 774 0
-412 41 0
413 -412 -740 0
-413 412 0
-413 740 0
414 -859 -411 0
-414 859 0
-414 411 0
415 -32 -14 0
-415 32 0
-415 14 0
416 -415 -726 0
-416 415 0
-416 726 0
417 -860 -414 0
-417 860 0
-417 414 0
418 -835 -21 0
-418 835 0
-418 21 0
419 -418 -38 0
-419 418 0
-419 38 0
420 -861 -417 0
-420 861 0
-420 417 0
421 -728 -2 0
-421 728 0
-421 2 0
422 -421 -713 0
-422 421 0
-422 713 0
423 -862 -420 0
-423 862 0
-423 420 0
424 -45 -719 0
-424 45 0
-424 719 0
425 -424 -728 0
-425 424 0
-425 728 0
426 -863 -423 0
-426 863 0
-426 423 0
427 -36 -27 0
-427 36 0
-427 27 0
428 -427 -776 0
-428 427 0
-428 776 0
429 -864 -426 0
-429 864 0
-429 426 0
430 -774 -865 0
-430 774 0
-430 865 0
431 -430 -13 0
-431 430 0
-431 13 0
432 -866 -429 0
-432 866 0
-432 429 0
433 -47 -43 0
-433 47 0
-433 43 0
434 -433 -6 0
-434 433 0
-434 6 0
435 -867 -432 0
-435 867 0
-435 432 0
436 -796 -722 0
-436 796 0
-436 722 0
437 -436 -725 0
-437 436 0
-437 725 0
438 -868 -435 0
-438 868 0
-438 435 0
439 -41 -751 0
-439 41 0
-439 751 0
440 -439 -21 0
-440 439 0
-440 21 0
441 -869 -438 0
-441 869 0
-441 438 0
442 -870 -865 0
-442 870 0
-442 865 0
443 -442 -816 0
-443 442 0
-443 816 0
444 -871 -441 0
-444 871 0
-444 441 0
445 -27 -7 0
-445 27 0
-445 7 0
446 -445 -13 0
-446 445 0
-446 13 0
447 -872 -444 0
-447 872 0
-447 444 0
448 -873 -2 0
-448 873 0
-448 2 0
449 -448 -36 0
-449 448 0
-449 36 0
450 -874 -447 0
-450 874 0
-450 447 0
451 -49 -1 0
-451 49 0
-451 1 0
452 -451 -6 0
-452 451 0
-452 6 0
453 -875 -450 0
-453 875 0
-453 450 0
454 -45 -32 0
-454 45 0
-454 32 0
455 -454 -760 0
-455 454 0
-455 760 0
456 -876 -453 0
-456 876 0
-456 453 0
457 -47 -41 0
-457 47 0
-457 41 0
458 -457 -25 0
-458 457 0
-458 25 0
459 -877 -456 0
-459 877 0
-459 456 0
460 -46 -6 0
-460 46 0
-460 6 0
461 -460 -785 0
-461 460 0
-461 785 0
462 -878 -459 0
-462 878 0
-462 459 0
463 -49 -34 0
-463 49 0
-463 34 0
464 -463 -716 0
-464 463 0
-464 716 0
465 -879 -462 0
-465 879 0
-465 462 0
466 -835 -691 0
-466 835 0
-466 691 0
467 -466 -6 0
-467 466 0
-467 6 0
468 -880 -465 0
-468 880 0
-468 465 0
469 -41 -816 0
-469 41 0
-469 816 0
470 -469 -691 0
-470 469 0
-470 691 0
471 -881 -468 0
-471 881 0
-471 468 0
472 -870 -873 0
-472 870 0
-472 873 0
473 -472 -835 0
-473 472 0
-473 835 0
474 -882 -471 0
-474 882 0
-474 471 0
475 -728 -7 0
-475 728 0
-475 7 0
476 -475 -706 0
-476 475 0
-476 706 0
477 -883 -474 0
-477 883 0
-477 474 0
478 -760 -29 0
-478 760 0
-478 29 0
479 -478 -25 0
-479 478 0
-479 25 0
480 -884 -477 0
-480 884 0
-480 477 0
481 -15 -691 0
-481 15 0
-481 691 0
482 -481 -765 0
-482 481 0
-482 765 0
483 -885 -480 0
-483 885 0
-483 480 0
484 -45 -9 0
-484 45 0
-484 9 0
485 -484 -734 0
-485 484 0
-485 734 0
486 -886 -483 0
-486 886 0
-486 483 0
487 -457 -26 0
-487 457 0
-487 26 0
488 -887 -486 0
-488 887 0
-488 486 0
489 -749 -809 0
-489 749 0
-489 809 0
490 -489 -708 0
-490 489 0
-490 708 0
491 -888 -488 0
-491 888 0
-491 488 0
492 -41 -4 0
-492 41 0
-492 4 0
493 -492 -803 0
-493 492 0
-493 803 0
494 -889 -491 0
-494 889 0
-494 491 0
495 -50 -41 0
-495 50 0
-495 41 0
496 -495 -33 0
-496 495 0
-496 33 0
497 -890 -494 0
-497 890 0
-497 494 0
498 -48 -763 0
-498 48 0
-498 763 0
499 -498 -734 0
-499 498 0
-499 734 0
500 -891 -497 0
-500 891 0
-500 497 0
501 -845 -40 0
-501 845 0
-501 40 0
502 -501 -1 0
-502 501 0
-502 1 0
503 -892 -500 0
-503 892 0
-503 500 0
504 -8 -5 0
-504 8 0
-504 5 0
505 -504 -734 0
-505 504 0
-505 734 0
506 -893 -503 0
-506 893 0
-506 503 0
507 -44 -7 0
-507 44 0
-507 7 0
508 -507 -5 0
-508 507 0
-508 5 0
509 -894 -506 0
-509 894 0
-509 506 0
510 -816 -7 0
-510 816 0
-510 7 0
511 -510 -24 0
-511 510 0
-511 24 0
512 -895 -509 0
-512 895 0
-512 509 0
513 -716 -14 0
-513 716 0
-513 14 0
514 -513 -691 0
-514 513 0
-514 691 0
515 -896 -512 0
-515 896 0
-515 512 0
516 -42 -20 0
-516 42 0
-516 20 0
517 -516 -713 0
-517 516 0
-517 713 0
518 -897 -515 0
-518 897 0
-518 515 0
519 -44 -20 0
-519 44 0
-519 20 0
520 -519 -48 0
-520 519 0
-520 48 0
521 -898 -518 0
-521 898 0
-521 518 0
522 -29 -9 0
-522 29 0
-522 9 0
523 -522 -11 0
-523 522 0
-523 11 0
524 -899 -521 0
-524 899 0
-524 521 0
525 -770 -798 0
-525 770 0
-525 798 0
526 -525 -11 0
-526 525 0
-526 11 0
527 -900 -524 0
-527 900 0
-527 524 0
528 -794 -722 0
-528 794 0
-528 722 0
529 -528 -706 0
-529 528 0
-529 706 0
530 -901 -527 0
-530 901 0
-530 527 0
531 -32 -22 0
-531 32 0
-531 22 0
532 -531 -49 0
-532 531 0
-532 49 0
533 -902 -530 0
-533 902 0
-533 530 0
534 -708 -697 0
-534 708 0
-534 697 0
535 -534 -816 0
-535 534 0
-535 816 0
536 -903 -533 0
-536 903 0
-536 533 0
537 -49 -44 0
-537 49 0
-537 44 0
538 -537 -776 0
-538 537 0
-538 776 0
539 -904 -536 0
-539 904 0
-539 536 0
540 -796 -816 0
-540 796 0
-540 816 0
541 -540 -706 0
-541 540 0
-541 706 0
542 -905 -539 0
-542 905 0
-542 539 0
543 -42 -708 0
-543 42 0
-543 708 0
544 -543 -26 0
-544 543 0
-544 26 0
545 -906 -542 0
-545 906 0
-545 542 0
546 -709 -699 0
-546 709 0
-546 699 0
547 -546 -12 0
-547 546 0
-547 12 0
548 -907 -545 0
-548 907 0
-548 545 0
549 -21 -704 0
-549 21 0
-549 704 0
550 -549 -9 0
-550 549 0
-550 9 0
551 -908 -548 0
-551 908 0
-551 548 0
552 -725 -699 0
-552 725 0
-552 699 0
553 -552 -791 0
-553 552 0
-553 791 0
554 -909 -551 0
-554 909 0
-554 551 0
555 -870 -742 0
-555 870 0
-555 742 0
556 -555 -37 0
-556 555 0
-556 37 0
557 -910 -554 0
-557 910 0
-557 554 0
558 -48 -22 0
-558 48 0
-558 22 0
559 -558 -873 0
-559 558 0
-559 873 0
560 -911 -557 0
-560 911 0
-560 557 0
561 -760 -43 0
-561 760 0
-561 43 0
562 -561 -725 0
-562 561 0
-562 725 0
563 -912 -560 0
-563 912 0
-563 560 0
564 -49 -22 0
-564 49 0
-564 22 0
565 -564 -7 0
-565 564 0
-565 7 0
566 -913 -563 0
-566 913 0
-566 563 0
567 -751 -763 0
-567 751 0
-567 763 0
568 -567 -12 0
-568 567 0
-568 12 0
569 -914 -566 0
-569 914 0
-569 566 0
570 -865 -809 0
-570 865 0
-570 809 0
571 -570 -3 0
-571 570 0
-571 3 0
572 -915 -569 0
-572 915 0
-572 569 0
573 -725 -1 0
-573 725 0
-573 1 0
574 -573 -776 0
-574 573 0
-574 776 0
575 -916 -572 0
-575 916 0
-575 572 0
576 -755 -42 0
-576 755 0
-576 42 0
577 -576 -816 0
-577 576 0
-577 816 0
578 -917 -575 0
-578 917 0
-578 575 0
579 -34 -692 0
-579 34 0
-579 692 0
580 -579 -25 0
-580 579 0
-580 25 0
581 -918 -578 0
-581 918 0
-581 578 0
582 -48 -6 0
-582 48 0
-582 6 0
583 -582 -779 0
-583 582 0
-583 779 0
584 -919 -581 0
-584 919 0
-584 581 0
585 -755 -23 0
-585 755 0
-585 23 0
586 -585 -6 0
-586 585 0
-586 6 0
587 -920 -584 0
-587 920 0
-587 584 0
588 -758 -691 0
-588 758 0
-588 691 0
589 -588 -24 0
-589 588 0
-589 24 0
590 -921 -587 0
-590 921 0
-590 587 0
591 -34 -25 0
-591 34 0
-591 25 0
592 -591 -720 0
-592 591 0
-592 720 0
593 -922 -590 0
-593 922 0
-593 590 0
594 -760 -37 0
-594 760 0
-594 37 0
595 -594 -11 0
-595 594 0
-595 11 0
596 -923 -593 0
-596 923 0
-596 593 0
597 -798 -41 0
-597 798 0
-597 41 0
598 -597 -709 0
-598 597 0
-598 709 0
599 -924 -596 0
-599 924 0
-599 596 0
600 -728 -719 0
-600 728 0
-600 719 0
601 -600 -697 0
-601 600 0
-601 697 0
602 -925 -599 0
-602 925 0
-602 599 0
603 -457 -736 0
-603 457 0
-603 736 0
604 -926 -602 0
-604 926 0
-604 602 0
605 -44 -763 0
-605 44 0
-605 763 0
606 -605 -734 0
-606 605 0
-606 734 0
607 -927 -604 0
-607 927 0
-607 604 0
608 -22 -16 0
-608 22 0
-608 16 0
609 -608 -803 0
-609 608 0
-609 803 0
610 -928 -607 0
-610 928 0
-610 607 0
611 -873 -743 0
-611 873 0
-611 743 0
612 -611 -33 0
-612 611 0
-612 33 0
613 -929 -610 0
-613 929 0
-613 610 0
614 -728 -697 0
-614 728 0
-614 697 0
615 -614 -845 0
-615 614 0
-615 845 0
616 -930 -613 0
-616 930 0
-616 613 0
617 -803 -2 0
-617 803 0
-617 2 0
618 -617 -36 0
-618 617 0
-618 36 0
619 -931 -616 0
-619 931 0
-619 616 0
620 -803 -10 0
-620 803 0
-620 10 0
621 -620 -763 0
-621 620 0
-621 763 0
622 -932 -619 0
-622 932 0
-622 619 0
623 -760 -701 0
-623 760 0
-623 701 0
624 -623 -18 0
-624 623 0
-624 18 0
625 -933 -622 0
-625 933 0
-625 622 0
626 -26 -742 0
-626 26 0
-626 742 0
627 -626 -835 0
-627 626 0
-627 835 0
628 -934 -625 0
-628 934 0
-628 625 0
629 -32 -690 0
-629 32 0
-629 690 0
630 -629 -740 0
-630 629 0
-630 740 0
631 -935 -628 0
-631 935 0
-631 628 0
632 -796 -16 0
-632 796 0
-632 16 0
633 -632 -37 0
-633 632 0
-633 37 0
634 -936 -631 0
-634 936 0
-634 631 0
635 -28 -17 0
-635 28 0
-635 17 0
636 -635 -26 0
-636 635 0
-636 26 0
637 -937 -634 0
-637 937 0
-637 634 0
638 -40 -835 0
-638 40 0
-638 835 0
639 -638 -765 0
-639 638 0
-639 765 0
640 -938 -637 0
-640 938 0
-640 637 0
641 -436 -31 0
-641 436 0
-641 31 0
642 -939 -640 0
-642 939 0
-642 640 0
643 -8 -2 0
-643 8 0
-643 2 0
644 -643 -785 0
-644 643 0
-644 785 0
645 -940 -642 0
-645 940 0
-645 642 0
646 -743 -5 0
-646 743 0
-646 5 0
647 -646 -21 0
-647 646 0
-647 21 0
648 -941 -645 0
-648 941 0
-648 645 0
649 -763 -691 0
-649 763 0
-649 691 0
650 -649 -24 0
-650 649 0
-650 24 0
651 -942 -648 0
-651 942 0
-651 648 0
652 -722 -19 0
-652 722 0
-652 19 0
653 -652 -720 0
-653 652 0
-653 720 0
654 -943 -651 0
-654 943 0
-654 651 0
655 -758 -5 0
-655 758 0
-655 5 0
656 -655 -730 0
-656 655 0
-656 730 0
657 -944 -654 0
-657 944 0
-657 654 0
658 -45 -29 0
-658 45 0
-658 29 0
659 -658 -728 0
-659 658 0
-659 728 0
660 -945 -657 0
-660 945 0
-660 657 0
661 -457 -692 0
-661 457 0
-661 692 0
662 -946 -660 0
-662 946 0
-662 660 0
663 -845 -7 0
-663 845 0
-663 7 0
664 -663 -3 0
-664 663 0
-664 3 0
665 -947 -662 0
-665 947 0
-665 662 0
666 -40 -14 0
-666 40 0
-666 14 0
667 -666 -19 0
-667 666 0
-667 19 0
668 -948 -665 0
-668 948 0
-668 665 0
669 -35 -32 0
-669 35 0
-669 32 0
670 -669 -3 0
-670 669 0
-670 3 0
671 -949 -668 0
-671 949 0
-671 668 0
672 -50 -18 0
-672 50 0
-672 18 0
673 -672 -779 0
-673 672 0
-673 779 0
674 -950 -671 0
-674 950 0
-674 671 0
675 -34 -809 0
-675 34 0
-675 809 0
676 -675 -740 0
-676 675 0
-676 740 0
677 -951 -674 0
-677 951 0
-677 674 0
678 -32 -7 0
-678 32 0
-678 7 0
679 -678 -692 0
-679 678 0
-679 692 0
680 -952 -677 0
-680 952 0
-680 677 0
681 -29 -803 0
-681 29 0
-681 803 0
682 -681 -12 0
-682 681 0
-682 12 0
683 -953 -680 0
-683 953 0
-683 680 0
684 -770 -47 0
-684 770 0
-684 47 0
685 -684 -734 0
-685 684 0
-685 734 0
686 -954 -683 0
-686 954 0
-686 683 0
687 -794 -22 0
-687 794 0
-687 22 0
688 -687 -48 0
-688 687 0
-688 48 0
689 -955 -686 0
-689 955 0
-689 686 0
-690 -2 0
690 2 0
-691 -1 0
691 1 0
-692 -4 0
692 4 0
-693 -54 0
693 54 0
-694 -52 0
694 52 0
-695 -57 0
695 57 0
-696 -8 0
696 8 0
-697 -7 0
697 7 0
-698 -60 0
698 60 0
-699 -10 0
699 10 0
-700 -63 0
700 63 0
-701 -5 0
701 5 0
-702 -66 0
702 66 0
-703 -69 0
703 69 0
-704 -14 0
704 14 0
-705 -72 0
705 72 0
-706 -3 0
706 3 0
-707 -75 0
707 75 0
-708 -16 0
708 16 0
-709 -18 0
709 18 0
-710 -78 0
710 78 0
-711 -19 0
711 19 0
-712 -81 0
712 81 0
-713 -11 0
713 11 0
-714 -84 0
714 84 0
-715 -87 0
715 87 0
-716 -26 0
716 26 0
-717 -90 0
717 90 0
-718 -93 0
718 93 0
-719 -28 0
719 28 0
-720 -13 0
720 13 0
-721 -96 0
721 96 0
-722 -29 0
722 29 0
-723 -99 0
723 99 0
-724 -102 0
724 102 0
-725 -25 0
725 25 0
-726 -24 0
726 24 0
-727 -105 0
727 105 0
-728 -32 0
728 32 0
-729 -108 0
729 108 0
-730 -33 0
730 33 0
-731 -111 0
731 111 0
-732 -114 0
732 114 0
-733 -117 0
733 117 0
-734 -36 0
734 36 0
-735 -120 0
735 120 0
-736 -38 0
736 38 0
-737 -123 0
737 123 0
-738 -126 0
738 126 0
-739 -129 0
739 129 0
-740 -15 0
740 15 0
-741 -132 0
741 132 0
-742 -22 0
742 22 0
-743 -27 0
743 27 0
-744 -135 0
744 135 0
-745 -138 0
745 138 0
-746 -141 0
746 141 0
-747 -144 0
747 144 0
-748 -147 0
748 147 0
-749 -34 0
749 34 0
-750 -150 0
750 150 0
-751 -40 0
751 40 0
-752 -153 0
752 153 0
-753 -156 0
753 156 0
-754 -159 0
754 159 0
-755 -43 0
755 43 0
-756 -162 0
756 162 0
-757 -165 0
757 165 0
-758 -17 0
758 17 0
-759 -168 0
759 168 0
-760 -46 0
760 46 0
-761 -171 0
761 171 0
-762 -174 0
762 174 0
-763 -9 0
763 9 0
-764 -177 0
764 177 0
-765 -12 0
765 12 0
-766 -180 0
766 180 0
-767 -183 0
767 183 0
-768 -186 0
768 186 0
-769 -189 0
769 189 0
-770 -48 0
770 48 0
-771 -192 0
771 192 0
-772 -195 0
772 195 0
-773 -198 0
773 198 0
-774 -49 0
774 49 0
-775 -201 0
775 201 0
-776 -6 0
776 6 0
-777 -204 0
777 204 0
-778 -207 0
778 207 0
-779 -30 0
779 30 0
-780 -210 0
780 210 0
-781 -213 0
781 213 0
-782 -216 0
782 216 0
-783 -219 0
783 219 0
-784 -222 0
784 222 0
-785 -31 0
785 31 0
-786 -225 0
786 225 0
-787 -228 0
787 228 0
-788 -231 0
788 231 0
-789 -234 0
789 234 0
-790 -237 0
790 237 0
-791 -50 0
791 50 0
-792 -240 0
792 240 0
-793 -243 0
793 243 0
-794 -41 0
794 41 0
-795 -246 0
795 246 0
-796 -45 0
796 45 0
-797 -249 0
797 249 0
-798 -47 0
798 47 0
-799 -252 0
799 252 0
-800 -255 0
800 255 0
-801 -258 0
801 258 0
-802 -261 0
802 261 0
-803 -21 0
803 21 0
-804 -264 0
804 264 0
-805 -267 0
805 267 0
-806 -270 0
806 270 0
-807 -273 0
807 273 0
-808 -276 0
808 276 0
-809 -20 0
809 20 0
-810 -279 0
810 279 0
-811 -282 0
811 282 0
-812 -285 0
812 285 0
-813 -288 0
813 288 0
-814 -291 0
814 291 0
-815 -294 0
815 294 0
-816 -23 0
816 23 0
-817 -296 0
817 296 0
-818 -299 0
818 299 0
-819 -302 0
819 302 0
-820 -305 0
820 305 0
-821 -308 0
821 308 0
-822 -311 0
822 311 0
-823 -314 0
823 314 0
-824 -317 0
824 317 0
-825 -320 0
825 320 0
-826 -323 0
826 323 0
-827 -325 0
827 325 0
-828 -328 0
828 328 0
-829 -331 0
829 331 0
-830 -334 0
830 334 0
-831 -337 0
831 337 0
-832 -340 0
832 340 0
-833 -343 0
833 343 0
-834 -346 0
834 346 0
-835 -35 0
835 35 0
-836 -349 0
836 349 0
-837 -352 0
837 352 0
-838 -355 0
838 355 0
-839 -357 0
839 357 0
-840 -360 0
840 360 0
-841 -363 0
841 363 0
-842 -366 0
842 366 0
-843 -369 0
843 369 0
-844 -372 0
844 372 0
-845 -42 0
845 42 0
-846 -375 0
846 375 0
-847 -378 0
847 378 0
-848 -381 0
848 381 0
-849 -384 0
849 384 0
-850 -387 0
850 387 0
-851 -390 0
851 390 0
-852 -393 0
852 393 0
-853 -396 0
853 396 0
-854 -399 0
854 399 0
-855 -401 0
855 401 0
-856 -404 0
856 404 0
-857 -407 0
857 407 0
-858 -410 0
858 410 0
-859 -413 0
859 413 0
-860 -416 0
860 416 0
-861 -419 0
861 419 0
-862 -422 0
862 422 0
-863 -425 0
863 425 0
-864 -428 0
864 428 0
-865 -39 0
865 39 0
-866 -431 0
866 431 0
-867 -434 0
867 434 0
-868 -437 0
868 437 0
-869 -440 0
869 440 0
-870 -44 0
870 44 0
-871 -443 0
871 443 0
-872 -446 0
872 446 0
-873 -37 0
873 37 0
-874 -449 0
874 449 0
-875 -452 0
875 452 0
-876 -455 0
876 455 0
-877 -458 0
877 458 0
-878 -461 0
878 461 0
-879 -464 0
879 464 0
-880 -467 0
880 467 0
-881 -470 0
881 470 0
-882 -473 0
882 473 0
-883 -476 0
883 476 0
-884 -479 0
884 479 0
-885 -482 0
885 482 0
-886 -485 0
886 485 0
-887 -487 0
887 487 0
-888 -490 0
888 490 0
-889 -493 0
889 493 0
-890 -496 0
890 496 0
-891 -499 0
891 499 0
-892 -502 0
892 502 0
-893 -505 0
893 505 0
-894 -508 0
894 508 0
-895 -511 0
895 511 0
-896 -514 0
896 514 0
-897 -517 0
897 517 0
-898 -520 0
898 520 0
-899 -523 0
899 523 0
-900 -526 0
900 526 0
-901 -529 0
901 529 0
-902 -532 0
902 532 0
-903 -535 0
903 535 0
-904 -538 0
904 538 0
-905 -541 0
905 541 0
-906 -544 0
906 544 0
-907 -547 0
907 547 0
-908 -550 0
908 550 0
-909 -553 0
909 553 0
-910 -556 0
910 556 0
-911 -559 0
911 559 0
-912 -562 0
912 562 0
-913 -565 0
913 565 0
-914 -568 0
914 568 0
-915 -571 0
915 571 0
-916 -574 0
916 574 0
-917 -577 0
917 577 0
-918 -580 0
918 580 0
-919 -583 0
919 583 0
-920 -586 0
920 586 0
-921 -589 0
921 589 0
-922 -592 0
922 592 0
-923 -595 0
923 595 0
-924 -598 0
924 598 0
-925 -601 0
925 601 0
-926 -603 0
926 603 0
-927 -606 0
927 606 0
-928 -609 0
928 609 0
-929 -612 0
929 612 0
-930 -615 0
930 615 0
-931 -618 0
931 618 0
-932 -621 0
932 621 0
-933 -624 0
933 624 0
-934 -627 0
934 627 0
-935 -630 0
935 630 0
-936 -633 0
936 633 0
-937 -636 0
937 636 0
-938 -639 0
938 639 0
-939 -641 0
939 641 0
-940 -644 0
940 644 0
-941 -647 0
941 647 0
-942 -650 0
942 650 0
-943 -653 0
943 653 0
-944 -656 0
944 656 0
-945 -659 0
945 659 0
-946 -661 0
946 661 0
-947 -664 0
947 664 0
-948 -667 0
948 667 0
-949 -670 0
949 670 0
-950 -673 0
950 673 0
-951 -676 0
951 676 0
-952 -679 0
952 679 0
-953 -682 0
953 682 0
-954 -685 0
954 685 0
-955 -688 0
955 688 0
689 0
